<number of tasks>
50

<cycle time>
1000

<order strength>
0.601


<task times>
1 69
2 28
3 134
4 142
5 39
6 80
7 82
8 170
9 183
10 146
11 50
12 44
13 45
14 115
15 232
16 58
17 274
18 85
19 225
20 194
21 38
22 204
23 153
24 118
25 26
26 142
27 131
28 281
29 77
30 78
31 216
32 226
33 208
34 62
35 267
36 31
37 64
38 22
39 138
40 87
41 26
42 269
43 126
44 257
45 138
46 75
47 59
48 169
49 118
50 289

<precedence relations>
1,7
2,8
3,9
4,10
5,11
6,12
7,14
8,14
9,13
10,15
11,14
12,14
12,15
12,16
12,17
13,19
14,18
14,21
14,22
14,23
15,23
16,20
16,23
17,23
18,24
19,28
20,25
21,26
22,27
23,28
23,29
23,30
24,31
25,34
26,32
27,33
28,34
28,35
29,34
29,35
30,34
30,35
31,36
32,37
33,37
34,39
34,40
35,37
35,38
36,38
37,39
37,40
37,41
38,42
38,43
40,43
41,43
42,45
42,46
43,44
43,47
43,50
44,48
44,49
45,47
45,50
46,49

<end>
